(set-info :source  loris-7.ddns.comp.nus.edu.sg/~project/hip/) 
;Variables declarations
(declare-fun n () Int)
(declare-fun flted_9_1747 () Int)
(declare-fun n_1764 () Int)
(declare-fun c () Int)
(declare-fun bg_1746 () Int)
(declare-fun sm_1745 () Int)
(declare-fun bg () Int)
(declare-fun sm () Int)
(declare-fun d_1748 () Int)
(declare-fun bg_1766 () Int)
(declare-fun b_1785 () Int)
(declare-fun tmp1_1821 () Int)
(declare-fun sm_1765 () Int)
(declare-fun c_primed () Int)
(declare-fun a_1784 () Int)
(declare-fun xs_primed () Int)
(declare-fun xsnext_1786 () Int)
(declare-fun xs () Int)
(declare-fun xs_1788 () Int)
(declare-fun v_node_35_1518_primed () Int)
(declare-fun res () Int)
;Relations declarations
;Axioms assertions
;Antecedent
(assert (<= 0 flted_9_1747))
(assert (= (+ flted_9_1747 1) n))
(assert (= n_1764 flted_9_1747))
(assert (<= 0 n_1764))
(assert (= n_1764 (+ b_1785 a_1784)))
(assert (= bg_1766 bg_1746))
(assert (= sm_1765 sm_1745))
(assert (= c_primed c))
(assert (<= sm c))
(assert (<= c bg))
(assert (= bg_1746 bg))
(assert (= sm_1745 sm))
(assert (< d_1748 bg))
(assert (<= sm d_1748))
(assert (<= c_primed d_1748))
(assert (or (and (< tmp1_1821 1) (= b_1785 0)) (and (and (< c_primed bg_1766) (<= 1 b_1785)) (> tmp1_1821 0))))
(assert (or (and (< xsnext_1786 1) (= a_1784 0)) (and (and (< sm_1765 c_primed) (<= 1 a_1784)) (> xsnext_1786 0))))
(assert (= xs_primed xsnext_1786))
(assert (= xs_1788 xs))
(assert (> xs_1788 0))
(assert (= xs_1788 1))
(assert (not (= xs_1788 v_node_35_1518_primed)))
(assert (= v_node_35_1518_primed 2))
(assert (= res v_node_35_1518_primed))
;Negation of Consequence
(assert (not (< res 1)))
(check-sat)